x = 20;
y = 17;
c = 63;
n = 33;

p = [100  79  41  93  54  33  31  89  64  44  44  87  65  44  54  91  56  90  63  16  19  72  87  29  93  69  98  99  18  86  49  92  47];
w = [3  2  10  9  3  9  2  10  7  8  1  4  9  8  2  4  4  8  7  4  3  6  8  9  1  3  3  10  5  4  5  3  9];
s = [1  7  16  10  1  10  12  4  12  10  10  5  13  13  5  14  13  8  2  6  6  10  16  16  3  10  13  3  11  5  16  16  4];
